GLPSOL--GLPK LP/MIP Solver 5.0
Parameter(s) specified in the command line:
 --lp ../modeles/15_499.lp --log 15_499.log
Reading problem data from '../modeles/15_499.lp'...
7546 rows, 15000 columns, 52470 non-zeros
7485 integer variables, all of which are binary
22567 lines were read
GLPK Integer Optimizer 5.0
7546 rows, 15000 columns, 52470 non-zeros
7485 integer variables, all of which are binary
Preprocessing...
7410 constraint coefficient(s) were reduced
7546 rows, 14985 columns, 52455 non-zeros
7485 integer variables, all of which are binary
Scaling...
 A: min|aij| =  1.606e-05  max|aij| =  4.000e+00  ratio =  2.490e+05
GM: min|aij| =  4.477e-02  max|aij| =  2.234e+01  ratio =  4.990e+02
EQ: min|aij| =  2.004e-03  max|aij| =  1.000e+00  ratio =  4.990e+02
2N: min|aij| =  1.953e-03  max|aij| =  1.771e+00  ratio =  9.066e+02
Constructing initial basis...
Size of triangular part is 7546
Solving LP relaxation...
GLPK Simplex Optimizer 5.0
7546 rows, 14985 columns, 52455 non-zeros
      0: obj =   3.000000000e+01 inf =   7.450e+01 (31)
Perturbing LP to avoid stalling [199]...
    404: obj =   4.998815261e-01 inf =   0.000e+00 (0)
Removing LP perturbation [1205]...
*  1205: obj =  -3.872596756e+00 inf =   5.289e-14 (0) 1
OPTIMAL LP SOLUTION FOUND
Integer optimization begins...
Long-step dual simplex will be used
+  1205: mip =     not found yet >=              -inf        (1; 0)
+  1369: >>>>>  -3.872596756e+00 >=  -3.872596756e+00   0.0% (164; 0)
+  1369: mip =  -3.872596756e+00 >=     tree is empty   0.0% (0; 327)
INTEGER OPTIMAL SOLUTION FOUND
Time used:   3.6 secs
Memory used: 21.9 Mb (22976081 bytes)
